c uprop, v00.0, 
c reading from data/prog728.c.cnf
c done reading: 0
p cnf 91 345
-42 -46 0
42 46 0
-47 -56 0
47 56 0
-59 -64 0
59 64 0
-52 -65 0
52 65 0
-45 -67 0
45 67 0
42 -69 0
-42 69 0
-42 -47 57 0
-47 57 0
-42 57 0
42 47 -57 0
47 -57 -71 0
42 -57 -71 0
-47 57 71 0
-42 57 71 0
57 71 0
-42 -47 71 0
38 -47 -59 0
38 -57 -59 0
38 -47 -57 0
-38 47 59 0
-38 57 59 0
-38 47 57 0
-36 -38 59 0
-36 -38 47 0
-36 -38 57 0
36 38 -59 0
36 38 -47 0
36 38 -57 0
36 -47 -57 -59 0
-36 47 57 59 0
34 -59 -65 0
34 -38 -65 0
34 -38 -59 0
-34 59 65 0
-34 38 65 0
-34 38 59 0
-32 -34 65 0
-32 -34 59 0
-32 -34 38 0
32 34 -65 0
32 34 -59 0
32 34 -38 0
32 -38 -59 -65 0
-32 38 59 65 0
30 -45 -65 0
30 -34 -45 0
30 -34 -65 0
-30 45 65 0
-30 34 45 0
-30 34 65 0
-28 -30 45 0
-28 -30 65 0
-28 -30 34 0
28 30 -45 0
28 30 -65 0
28 30 -34 0
28 -34 -45 -65 0
-28 34 45 65 0
-26 45 0
-26 30 0
26 -30 -45 0
-30 -40 -45 0
30 -40 45 0
30 40 -45 0
-30 40 45 0
36 -48 0
-36 48 0
-32 60 0
32 -60 0
32 -60 -66 0
-60 -66 0
-32 60 66 0
60 66 0
-28 43 0
-28 43 -60 0
43 -60 0
28 -43 60 0
-23 28 -43 0
-23 -43 60 0
23 -28 43 0
23 43 0
23 43 -60 0
23 -28 -60 0
-40 -42 53 0
-40 -43 53 0
-42 -43 53 0
40 42 -53 0
40 43 -53 0
42 43 -53 0
-40 53 0
-42 53 0
-43 53 0
-40 -42 -43 0
-26 -47 61 0
-26 -53 61 0
-47 -53 61 0
26 47 -61 0
26 53 -61 0
47 53 -61 0
-26 61 0
-47 61 0
-53 61 0
-26 -47 -53 0
-49 59 0
-49 61 0
49 -59 -61 0
-59 61 0
59 -61 0
65 -73 0
49 -73 0
-49 -65 73 0
49 -65 0
-49 65 0
-45 -73 0
-45 73 0
45 -73 0
-69 -76 0
69 76 0
-71 -77 0
71 77 0
-48 -78 0
48 78 0
-66 -79 0
66 79 0
-23 -80 0
23 80 0
-25 -68 0
-55 -68 0
25 55 68 0
25 55 -81 0
-25 -55 -81 0
-25 55 81 0
25 -55 81 0
68 -82 0
-82 -84 0
-68 82 84 0
-68 84 -85 0
68 -84 -85 0
68 84 85 0
-68 -84 85 0
82 -86 0
-63 -86 0
63 -82 86 0
63 -82 -87 0
-63 82 -87 0
63 82 87 0
-63 -82 87 0
-70 86 0
-70 -89 0
70 -86 89 0
-58 -86 89 0
-58 86 -89 0
58 86 89 0
58 -86 -89 0
70 -72 0
-51 -72 0
51 -70 72 0
-39 51 -70 0
-39 -51 70 0
39 51 70 0
39 -51 -70 0
-37 72 0
-37 -91 0
37 -72 91 0
-35 -72 91 0
-35 72 -91 0
35 72 91 0
35 -72 -91 0
-33 37 0
-33 -75 0
33 -37 75 0
-31 -37 75 0
-31 37 -75 0
31 37 75 0
31 -37 -75 0
-29 84 0
25 -29 0
-25 29 -84 0
-25 -27 -84 0
25 -27 84 0
25 27 -84 0
-25 27 84 0
22 -55 -63 0
22 -29 -63 0
22 -29 -55 0
-22 55 63 0
-22 29 63 0
-22 29 55 0
-21 -22 63 0
-21 -22 55 0
-21 -22 29 0
21 22 -63 0
21 22 -55 0
21 22 -29 0
21 -29 -55 -63 0
-21 29 55 63 0
20 -84 -89 0
20 -22 -89 0
20 -22 -84 0
-20 84 89 0
-20 22 89 0
-20 22 84 0
-19 -20 89 0
-19 -20 84 0
-19 -20 22 0
19 20 -89 0
19 20 -84 0
19 20 -22 0
19 -22 -84 -89 0
-19 22 84 89 0
18 -51 -63 0
18 -20 -51 0
18 -20 -63 0
-18 51 63 0
-18 20 51 0
-18 20 63 0
18 -51 0
18 -63 0
18 -20 0
-20 -51 -63 0
17 -89 -91 0
17 -18 -91 0
17 -18 -89 0
-17 89 91 0
-17 18 91 0
-17 18 89 0
17 -91 0
17 -89 0
17 -18 0
-18 -89 -91 0
16 -51 -75 0
16 -17 -75 0
16 -17 -51 0
-16 51 75 0
-16 17 75 0
-16 17 51 0
16 -75 0
16 -51 0
16 -17 0
-17 -51 -75 0
-41 91 0
16 -41 0
-16 41 -91 0
16 -91 0
-16 91 0
-41 -75 0
41 -75 0
-41 75 0
-25 -44 0
-44 -55 0
25 44 55 0
-24 25 55 0
-24 -25 -55 0
24 -25 55 0
24 25 -55 0
44 -54 0
-27 -54 0
27 -44 54 0
27 -44 -83 0
-27 44 -83 0
27 44 83 0
-27 -44 83 0
54 -62 0
-21 -62 0
21 -54 62 0
21 -54 -88 0
-21 54 -88 0
21 54 88 0
-21 -54 88 0
-50 62 0
-19 -50 0
19 50 -62 0
19 -62 -90 0
-19 62 -90 0
19 62 90 0
-19 -62 90 0
50 -74 0
-50 74 0
-15 -50 0
15 50 0
-14 74 0
14 -74 0
-13 -74 0
13 74 0
-12 14 0
12 -14 0
-11 -14 0
11 14 0
-10 12 0
10 -12 0
-9 -12 0
9 12 0
-8 10 0
8 -10 0
-7 -10 0
7 10 0
-6 8 0
6 -8 0
-5 -8 0
5 8 0
-4 69 0
-4 25 0
4 -25 -69 0
-25 -69 0
25 69 0
3 -55 -71 0
3 -4 -71 0
3 -4 -55 0
-3 55 71 0
-3 4 71 0
-3 4 55 0
-3 71 0
-3 55 0
-3 4 0
4 55 71 0
2 -27 -48 0
2 -3 -48 0
2 -3 -27 0
-2 27 48 0
-2 3 48 0
-2 3 27 0
2 -48 0
2 -27 0
2 -3 0
-3 -27 -48 0
1 -21 -66 0
1 -2 -66 0
1 -2 -21 0
-1 21 66 0
-1 2 66 0
-1 2 21 0
1 -66 0
1 -21 0
1 -2 0
-2 -21 -66 0
-19 -23 0
-1 -23 0
-1 -19 0
1 19 23 0
